(set-logic QF_LIA)
(set-info :ran/ran4.smt2)
(set-info :smt-lib-version 2.0)
(declare-fun x0 () Int)
(declare-fun x1 () Int)
(declare-fun x2 () Int)
(declare-fun x3 () Int)
(define-fun ie0 () Bool (<= (+ (* 52 x0) (* 19 x3) ) 87))
(define-fun ie1 () Bool (<= (+ (* 46 x3) (* (- 37) x2) ) (- 99)))
(define-fun ie2 () Bool (<= (+ (* 94 x2) (* (- 63) x0) ) 60))
(define-fun ie3 () Bool (<= (+ (* 88 x1) (* (- 5) x2) (* (- 34) x1) ) 57))
(assert ie0)
(assert ie1)
(assert ie2)
(assert ie3)
(check-sat)
(exit)
